language Essence 1.3
letting nnodes be 13
letting nrings be 7
letting capacity be 5
letting demand be {{1, 2},
{1, 6},
{1, 12},
{2, 8},
{3, 4},
{3, 5},
{3, 8},
{3, 10},
{3, 11},
{3, 12},
{4, 7},
{4, 8},
{4, 10},
{5, 9},
{6, 10},
{6, 11},
{6, 12},
{7, 8},
{7, 12},
{7, 13},
{8, 9},
{9, 13},
{11, 12},
{11, 13}}
